
  32    1
  10

   0   0   5 2 3 4 5 6 
   7   1   5 13 10 9 8 7 
  10   5   5 13 10 9 8 7 
   3  10   4 13 9 8 7 
   9  10   4 17 16 13 8 
   4   5   2 16 9 
   4   5   3 17 16 11 
   7   8   2 12 11 
   4   2   2 12 11 
   3   6   3 16 15 14 
   2   5   3 21 15 14 
   4   4   3 21 15 14 
   1   7   3 21 19 15 
   2   9   4 22 20 19 18 
   5   9   4 26 22 20 18 
   2   6   4 26 21 20 18 
   7   3   2 19 18 
   8   6   4 31 25 24 23 
   2   8   4 31 29 26 25 
   6   3   2 24 23 
   2   5   2 31 23 
   6   7   2 31 24 
   5   7   4 30 29 28 27 
   5   6   3 29 28 27 
   2   3   3 30 28 27 
   5   8   1 27 
  10   7   1 32
   5   8   1 32
  10   5   1 32
   3   5   1 32
   6   7   1 32
   0   0   0 
